Version identifier: 22.1.0.0 | 2022-03-09 | 1a383f8ce
CPXPARAM_Threads                                 1
CPXPARAM_MIP_Strategy_VariableSelect             3
CPXPARAM_TimeLimit                               599.99998617100005
1 of 1 MIP starts provided solutions.
MIP start 'm1' defined initial solution with objective 2.0000.
Tried aggregator 2 times.
MIP Presolve eliminated 40 rows and 1 columns.
MIP Presolve added 36 rows and 9 columns.
MIP Presolve modified 51 coefficients.
Aggregator did 9 substitutions.
Reduced MIP has 1807 rows, 6000 columns, and 109837 nonzeros.
Reduced MIP has 6000 binaries, 0 generals, 0 SOSs, and 0 indicators.
Presolve time = 0.15 sec. (204.49 ticks)
Probing time = 0.02 sec. (18.14 ticks)
Tried aggregator 1 time.
Detecting symmetries...
MIP Presolve modified 13 coefficients.
Reduced MIP has 1807 rows, 6000 columns, and 110084 nonzeros.
Reduced MIP has 6000 binaries, 0 generals, 0 SOSs, and 0 indicators.
Presolve time = 0.11 sec. (157.54 ticks)
Probing time = 0.02 sec. (18.17 ticks)
Clique table members: 1194.
MIP emphasis: balance optimality and feasibility.
MIP search method: dynamic search.
Parallel mode: none, using 1 thread.
Root relaxation solution time = 1.46 sec. (1808.81 ticks)

        Nodes                                         Cuts/
   Node  Left     Objective  IInf  Best Integer    Best Bound    ItCnt     Gap

*     0+    0                            2.0000    45150.0000              --- 
      0     0      300.0000  1281        2.0000      300.0000     4996     --- 
      0     0      300.0000  1169        2.0000      Cuts: 20    10841     --- 
      0     0      300.0000  1254        2.0000      Cuts: 31    14994     --- 
      0     0      300.0000  1139        2.0000      Cuts: 16    20070     --- 
      0     0      300.0000  1160        2.0000      Cuts: 13    26255     --- 
Heuristic still looking.
Detecting symmetries...
      0     2      300.0000   889        2.0000      300.0000    26255     --- 
Elapsed time = 80.01 sec. (89037.76 ticks, tree = 0.01 MB, solutions = 1)
      1     3      300.0000  1158        2.0000      300.0000    36699     --- 
      2     4      300.0000  1242        2.0000      300.0000    43271     --- 
      3     5      300.0000  1229        2.0000      300.0000    62477     --- 
      4     6      300.0000  1134        2.0000      300.0000    62590     --- 
      5     7      300.0000  1239        2.0000      300.0000    79859     --- 
      6     8      300.0000  1142        2.0000      300.0000    79912     --- 
      7     9      221.0000   839        2.0000      300.0000    88081     --- 
      8    10      300.0000  1156        2.0000      300.0000    88162     --- 
      9    11      300.0000  1235        2.0000      300.0000    88673     --- 
     10    12      300.0000  1158        2.0000      300.0000    88674     --- 
Elapsed time = 104.20 sec. (118858.32 ticks, tree = 0.06 MB, solutions = 1)
     11    13      300.0000  1306        2.0000      300.0000    90656     --- 
     14    16      300.0000  1159        2.0000      300.0000    91084     --- 
     16    18      300.0000  1152        2.0000      300.0000    91491     --- 
     19    21      300.0000  1204        2.0000      300.0000    92664     --- 
     21    23      300.0000  1188        2.0000      300.0000    92920     --- 
     23    25      300.0000  1178        2.0000      300.0000    93195     --- 
     26    28      300.0000  1147        2.0000      300.0000    94131     --- 
     28    30      300.0000  1142        2.0000      300.0000    94551     --- 
     30    32      300.0000  1252        2.0000      300.0000    96066     --- 
     33    35      300.0000  1125        2.0000      300.0000    96883     --- 
Elapsed time = 118.05 sec. (136293.82 ticks, tree = 0.11 MB, solutions = 1)
     36    38      300.0000  1128        2.0000      300.0000    98229     --- 
     38    40      300.0000  1193        2.0000      300.0000    98989     --- 
     39    41      300.0000  1133        2.0000      300.0000    99152     --- 
     42    44      300.0000  1120        2.0000      300.0000   100373     --- 
     44    46      300.0000  1174        2.0000      300.0000   100843     --- 
     46    48      300.0000  1132        2.0000      300.0000   103294     --- 
     47    49      300.0000  1186        2.0000      300.0000   104936     --- 
     48    50      300.0000  1153        2.0000      300.0000   111679     --- 
     49    51      300.0000  1154        2.0000      300.0000   111688     --- 
     51    53      300.0000  1141        2.0000      300.0000   112749     --- 
Elapsed time = 129.45 sec. (150797.15 ticks, tree = 0.15 MB, solutions = 1)
     53    55      300.0000  1117        2.0000      300.0000   115271     --- 
     56    58      300.0000  1101        2.0000      300.0000   116468     --- 
     58    60      300.0000  1102        2.0000      300.0000   121500     --- 
     61    63      300.0000  1220        2.0000      300.0000   123055     --- 
     64    66      300.0000  1195        2.0000      300.0000   126061     --- 
     67    69      300.0000  1144        2.0000      300.0000   126944     --- 
     69    71      300.0000  1055        2.0000      300.0000   128416     --- 
     72    74      300.0000  1071        2.0000      300.0000   129025     --- 
     75    77      300.0000  1034        2.0000      300.0000   130242     --- 
     79    80      300.0000  1010        2.0000      300.0000   134916     --- 
Elapsed time = 140.22 sec. (163243.60 ticks, tree = 0.21 MB, solutions = 1)
     82    83      300.0000   986        2.0000      300.0000   137707     --- 
     85    84      299.0000  1002        2.0000      300.0000   142135     --- 
     88    87      300.0000   946        2.0000      300.0000   149609     --- 
     89    87      299.1797   945        2.0000      300.0000   153694     --- 
     92    90      300.0000   954        2.0000      300.0000   155009     --- 
     95    92      298.6661  1001        2.0000      300.0000   165526     --- 
     98    94      299.0000   896        2.0000      300.0000   170885     --- 
    100    96      300.0000   953        2.0000      300.0000   171234     --- 
    102    96      298.9024   925        2.0000      300.0000   178104     --- 
    105    99      300.0000   943        2.0000      300.0000   178840     --- 
Elapsed time = 161.73 sec. (186073.63 ticks, tree = 0.26 MB, solutions = 1)
    109   101      299.3236  1011        2.0000      300.0000   180879     --- 
    112   102      300.0000   956        2.0000      300.0000   181476     --- 
    115   103      299.2520   976        2.0000      300.0000   188364     --- 
    119   105      300.0000   952        2.0000      300.0000   189154     --- 
    120   105      298.5774   900        2.0000      300.0000   192728     --- 
    122   106      300.0000   946        2.0000      300.0000   193746     --- 
    124   107      299.0524   992        2.0000      300.0000   195396     --- 
    125   107      299.0000   915        2.0000      300.0000   209100     --- 
    126   107      299.0447   918        2.0000      300.0000   217278     --- 
    128   108      298.0000   862        2.0000      300.0000   221083     --- 
Elapsed time = 175.33 sec. (201091.37 ticks, tree = 0.29 MB, solutions = 1)
    131   111      298.0000   832        2.0000      300.0000   224034     --- 
    134   113      298.0000   881        2.0000      300.0000   232489     --- 
    137   115      298.0000   863        2.0000      300.0000   238953     --- 
    139   116      297.0000   827        2.0000      300.0000   240762     --- 
    140   117      297.0000   828        2.0000      300.0000   243438     --- 
    143   119      297.0000   832        2.0000      300.0000   246281     --- 
    146   121      296.0000   801        2.0000      300.0000   254144     --- 
    151   126      296.0000   845        2.0000      300.0000   259007     --- 
    156   131      296.0000   841        2.0000      300.0000   261794     --- 
    158   132      296.0000   843        2.0000      300.0000   272174     --- 
Elapsed time = 191.11 sec. (216653.28 ticks, tree = 0.35 MB, solutions = 1)
    160   133      295.0000   756        2.0000      300.0000   280113     --- 
    166   136      294.0000   750        2.0000      300.0000   285512     --- 
    170   140      294.0000   686        2.0000      300.0000   292178     --- 
    175   142      293.0000   664        2.0000      300.0000   300496     --- 
    180   146      292.0000   660        2.0000      300.0000   303226     --- 
    185   151      292.0000   685        2.0000      300.0000   307009     --- 
    190   155      291.0000   500        2.0000      300.0000   313098     --- 
    196   159      291.0000   510        2.0000      300.0000   319187     --- 
    201   162      291.0000   514        2.0000      300.0000   326644     --- 
    206   165      290.0000   519        2.0000      300.0000   335318     --- 
Elapsed time = 209.79 sec. (234174.61 ticks, tree = 0.44 MB, solutions = 1)
    210   168      290.0000   491        2.0000      300.0000   340123     --- 
    216   171      291.0000   491        2.0000      300.0000   348191     --- 
    220   173      290.0000   525        2.0000      300.0000   353947     --- 
    227   176      290.0000   536        2.0000      300.0000   363035     --- 
    233   180      291.0000   484        2.0000      300.0000   370602     --- 
    239   184      290.0000   529        2.0000      300.0000   377695     --- 
    247   187      290.0000   516        2.0000      300.0000   384554     --- 
    252   191      291.0000   452        2.0000      300.0000   393489     --- 
    258   194      291.0000   447        2.0000      300.0000   405196     --- 
    262   196      291.0000   430        2.0000      300.0000   412551     --- 
Elapsed time = 221.21 sec. (244457.69 ticks, tree = 0.51 MB, solutions = 1)
    269   198      290.0000   503        2.0000      300.0000   426649     --- 
    270   198      290.0000   521        2.0000      300.0000   430016     --- 
    277   203      289.0000   486        2.0000      300.0000   434363     --- 
    284   208      288.0000   430        2.0000      300.0000   440473     --- 
    292   213      288.0000   425        2.0000      300.0000   445567     --- 
    300   218      288.0000   417        2.0000      300.0000   452857     --- 
    309   223      286.0000   366        2.0000      300.0000   458811     --- 
    318   228      286.0000   375        2.0000      300.0000   463444     --- 
    328   235      286.0000   374        2.0000      300.0000   469342     --- 
    363   244      299.0000   900        2.0000      300.0000   503003     --- 
Elapsed time = 240.23 sec. (262302.09 ticks, tree = 0.65 MB, solutions = 1)
    366   246      299.0000   897        2.0000      300.0000   525239     --- 
    374   249      298.0000   916        2.0000      300.0000   558635     --- 
    388   260      298.0000  1031        2.0000      300.0000   580967     --- 
    400   267    infeasible              2.0000      300.0000   602887     --- 
    408   269    infeasible              2.0000      300.0000   624587     --- 
    421   272      296.0000   854        2.0000      300.0000   647486     --- 
    435   272    infeasible              2.0000      300.0000   681010     --- 
    443   272    infeasible              2.0000      300.0000   705994     --- 
    456   273      296.0000   825        2.0000      300.0000   735662     --- 
    469   272    infeasible              2.0000      300.0000   771111     --- 
Elapsed time = 286.19 sec. (306493.32 ticks, tree = 0.73 MB, solutions = 1)
    483   272    infeasible              2.0000      300.0000   805492     --- 
    491   272    infeasible              2.0000      300.0000   833921     --- 
    504   273      296.0000   838        2.0000      300.0000   865317     --- 
    518   273      296.0000   848        2.0000      300.0000   896596     --- 
    526   273      296.0000   815        2.0000      300.0000   922454     --- 
    538   273      296.0000   810        2.0000      300.0000   959909     --- 
    545   274      296.0000   822        2.0000      300.0000   988724     --- 
    559   276      296.0000   759        2.0000      300.0000  1021358     --- 
    567   274    infeasible              2.0000      300.0000  1048068     --- 
    569   275      300.0000  1006        2.0000      300.0000  1069192     --- 
Elapsed time = 332.98 sec. (350450.81 ticks, tree = 0.73 MB, solutions = 1)
    575   280      299.0000   841        2.0000      300.0000  1091515     --- 
    579   283      298.0000   908        2.0000      300.0000  1115738     --- 
    580   283      297.0000   939        2.0000      300.0000  1129499     --- 
    591   291      296.0000   918        2.0000      300.0000  1143907     --- 
    602   299      300.0000  1009        2.0000      300.0000  1181858     --- 
    604   299      300.0000   949        2.0000      300.0000  1204412     --- 
    606   300      299.0000   958        2.0000      300.0000  1224044     --- 
    615   304      300.0000  1020        2.0000      300.0000  1247390     --- 
    625   311      300.0000   943        2.0000      300.0000  1269113     --- 
    630   313      298.9098   951        2.0000      300.0000  1296258     --- 
Elapsed time = 385.45 sec. (401161.64 ticks, tree = 0.83 MB, solutions = 1)
    635   316      299.8683   926        2.0000      300.0000  1323413     --- 
    643   320      299.2849  1014        2.0000      300.0000  1358594     --- 
    645   321      299.5910  1010        2.0000      300.0000  1381162     --- 
    650   324      298.8439   824        2.0000      300.0000  1394189     --- 
    657   328      300.0000   884        2.0000      300.0000  1421725     --- 
    664   331      300.0000   888        2.0000      300.0000  1443041     --- 
    672   333      299.0000   951        2.0000      300.0000  1481325     --- 
    680   337      297.0000   913        2.0000      300.0000  1495088     --- 
    696   348      296.0000   942        2.0000      300.0000  1512083     --- 
    700   351      295.0000   885        2.0000      300.0000  1526233     --- 
Elapsed time = 431.14 sec. (445981.17 ticks, tree = 0.93 MB, solutions = 1)
    713   361      294.0000   598        2.0000      300.0000  1548858     --- 
    720   364      293.0000   769        2.0000      300.0000  1567935     --- 
    733   372      293.0000   589        2.0000      300.0000  1610002     --- 
    742   378      293.6791   634        2.0000      300.0000  1649876     --- 
    756   385      293.8625   602        2.0000      300.0000  1686187     --- 
    760   387      293.0000   682        2.0000      300.0000  1698447     --- 
    777   395      293.4766   566        2.0000      300.0000  1742825     --- 
    787   401      293.0000   637        2.0000      300.0000  1777931     --- 
    802   410      299.0000   909        2.0000      300.0000  1828976     --- 
    806   412      298.0000   871        2.0000      300.0000  1854799     --- 
Elapsed time = 481.03 sec. (490500.43 ticks, tree = 1.09 MB, solutions = 1)
    817   422      298.0000   764        2.0000      300.0000  1866508     --- 
    826   428      298.0000   793        2.0000      300.0000  1886068     --- 
    830   430      298.0000   802        2.0000      300.0000  1905239     --- 
    838   435      297.0000   872        2.0000      300.0000  1932186     --- 
    844   438      297.6406   862        2.0000      300.0000  1956920     --- 
    853   444      298.0000   893        2.0000      300.0000  1977699     --- 
    860   448      298.0000   845        2.0000      300.0000  2006136     --- 
    866   450      297.0000   991        2.0000      300.0000  2020734     --- 
    880   462      295.0000   746        2.0000      300.0000  2033112     --- 
    893   470      293.8244   689        2.0000      300.0000  2058007     --- 
Elapsed time = 522.05 sec. (531217.14 ticks, tree = 1.24 MB, solutions = 1)
    909   482      291.0000   613        2.0000      300.0000  2076856     --- 
*   922+  489                            5.0000      300.0000              --- 
    922   491      291.0000   577        5.0000      300.0000  2099522     --- 
*   923+  490                          212.0000      300.0000            41.51%
    923   491      298.5533   947      212.0000      300.0000  2106005   41.51%
*   924+  488                          246.0000      300.0000            21.95%
*   924+  488                          262.0000      300.0000            14.50%
    924   489      298.7118   981      262.0000      300.0000  2115133   14.50%
    925   489      298.5896   940      262.0000      300.0000  2122874   14.50%
*   926+  488                          270.0000      300.0000            11.11%
    926   489      298.9339   983      270.0000      300.0000  2134847   11.11%
    928   490      299.0079   998      270.0000      300.0000  2153336   11.11%

Clique cuts applied:  73
Zero-half cuts applied:  14

Root node processing (before b&c):
  Real time             =   79.73 sec. (88791.30 ticks)
Sequential b&c:
  Real time             =  520.27 sec. (512279.25 ticks)
                          ------------
Total (root+branch&cut) =  600.01 sec. (601070.54 ticks)
Primal:	270
Dual:	300
Status:	Feasible
Time:	600.01
Sequence:
	13
	5
	15
	3
	10
	5
	5
	2
	10
	4
	18
	0
	15
	7
	10
	6
	15
	2
	15
	5
	13
	4
	10
	7
	15
	0
	7
	15
	1
	15
	5
	10
	7
	15
	0
	8
	10
	4
	10
	8
	0
	15
	3
	15
	0
	5
	15
	2
	15
	5
	1
	15
	7
	10
	5
	0
	15
	4
	10
	5
	10
	7
	5
	10
	8
	4
	10
	8
	15
	0
	7
	10
	5
	12
	5
	15
	2
	10
	5
	17
	0
	15
	7
	0
	11
	7
	15
	0
	18
	4
	10
	7
	15
	0
	6
	15
	2
	15
	0
	10
	5
	15
	2
	0
	11
	0
	15
	2
	15
	0
	12
	5
	15
	2
	15
	1
	5
	15
	2
	15
	6
	10
	7
	5
	10
	6
	10
	7
	0
	15
	0
	10
	2
	6
	10
	7
	5
	10
	6
	15
	2
	15
	5
	10
	6
	15
	2
	15
	0
	12
	5
	15
	2
	5
	15
	3
	15
	0
	5
	15
	3
	15
	5
	0
	10
	7
	15
	1
	15
	5
	10
	7
	15
	0
	15
	1
	15
	7
	0
	15
	0
	4
	10
	8
	15
	0
	15
	4
	10
	5
	15
	0
	7
	10
	5
	10
	6
	10
	7
	0
	10
	7
	15
	0
	18
	4
	10
	7
	5
	10
	4
	10
	5
	10
	8
	10
	4
	10
	5
	10
	7
	15
	0
	18
	4
	10
	7
	15
	0
	5
	15
	2
	15
	5
	10
	7
	15
	0
	11
	5
	10
	7
	15
	0
	15
	4
	10
	5
	8
	10
	4
	10
	5
	10
	5
	15
	3
	15
	5
	10
	0
	15
	4
	10
	5
	7
	10
	0
	10
	8
